'BPP     1'
       9
     100
      91         1
      88         1
      65         1
      55         1
      47         1
      41         1
      19         1
       5         1
       2         2
'BPP     2'
      10
     100
      76         1
      71         1
      62         1
      61         1
      48         1
      42         1
      37         1
      30         1
      29         1
       1         1
'BPP     3'
      10
     100
      95         1
      80         1
      75         1
      60         1
      58         1
      57         1
      34         1
      31         1
      23         1
      16         1
'BPP     4'
       9
     100
      86         1
      80         1
      75         1
      74         1
      35         1
      22         2
      16         1
      12         1
       1         1
'BPP     5'
       8
     100
      88         1
      75         1
      70         1
      44         2
      33         1
      18         1
       9         2
       8         1
'BPP     6'
      10
     100
      93         1
      89         1
      78         1
      73         1
      72         1
      60         1
      56         1
      35         1
      10         1
       9         1
'BPP     7'
      10
     100
      98         1
      79         1
      74         1
      69         1
      52         1
      34         1
      23         1
      21         1
      11         1
       3         1
'BPP     8'
      10
     100
      99         1
      98         1
      97         1
      75         1
      42         1
      38         1
      33         1
      20         1
       6         1
       4         1
'BPP     9'
      10
     100
      93         1
      92         1
      68         1
      60         1
      57         1
      51         1
      33         1
      23         1
      16         1
       3         1
'BPP    10'
      10
     100
      87         1
      66         1
      63         1
      58         1
      56         1
      52         1
      50         1
      46         1
      42         1
      13         1
'BPP    11'
       9
     100
      98         1
      97         2
      95         1
      83         1
      77         1
      61         1
      46         1
      28         1
       3         1
'BPP    12'
      10
     100
      95         1
      92         1
      91         1
      90         1
      72         1
      66         1
      60         1
      57         1
      34         1
      20         1
'BPP    13'
      10
     100
      99         1
      93         1
      87         1
      81         1
      80         1
      65         1
      62         1
       8         1
       7         1
       5         1
'BPP    14'
      10
     100
      97         1
      90         1
      77         1
      51         1
      49         1
      48         1
      44         1
       9         1
       7         1
       3         1
'BPP    15'
       9
     100
     100         1
      90         1
      86         1
      72         1
      68         1
      54         1
      25         1
       8         2
       7         1
'BPP    16'
      10
     100
      94         1
      92         1
      91         1
      79         1
      72         1
      56         1
      35         1
      23         1
      21         1
       3         1
'BPP    17'
      10
     100
      99         1
      96         1
      75         1
      70         1
      69         1
      64         1
      48         1
      29         1
      19         1
       8         1
'BPP    18'
      10
     100
      98         1
      86         1
      85         1
      80         1
      76         1
      75         1
      68         1
      22         1
      18         1
      11         1
'BPP    19'
       9
     100
      80         1
      69         1
      66         2
      64         1
      63         1
      47         1
      28         1
      26         1
      21         1
'BPP    20'
      10
     100
      95         1
      93         1
      91         1
      89         1
      86         1
      67         1
      65         1
      64         1
      39         1
      10         1
'BPP    21'
      10
     100
      82         1
      71         1
      61         1
      48         1
      46         1
      41         1
      35         1
      21         1
      14         1
       2         1
'BPP    22'
      10
     100
      63         1
      58         1
      47         1
      43         1
      32         1
      25         1
      24         1
      13         1
      11         1
       6         1
'BPP    23'
      10
     100
     100         1
      94         1
      88         1
      80         1
      69         1
      61         1
      52         1
      38         1
      32         1
      13         1
'BPP    24'
       8
     100
      90         1
      84         1
      77         1
      73         1
      48         1
      31         1
      27         2
      21         2
'BPP    25'
       8
     100
      86         1
      70         1
      60         1
      49         1
      46         1
      24         2
      20         2
       8         1
'BPP    26'
      10
     100
      78         1
      77         1
      76         1
      71         1
      62         1
      50         1
      41         1
      26         1
      19         1
       8         1
'BPP    27'
      10
     100
      96         1
      85         1
      80         1
      72         1
      63         1
      24         1
      15         1
      11         1
      10         1
       1         1
'BPP    28'
      10
     100
      94         1
      63         1
      60         1
      57         1
      52         1
      36         1
      30         1
      23         1
      19         1
      15         1
'BPP    29'
      10
     100
      89         1
      70         1
      62         1
      59         1
      54         1
      37         1
      18         1
      16         1
      14         1
       6         1
'BPP    30'
      10
     100
      95         1
      93         1
      90         1
      87         1
      84         1
      40         1
      37         1
      31         1
      27         1
      24         1
'BPP    31'
       9
     100
      87         2
      71         1
      66         1
      41         1
      37         1
      33         1
      29         1
      11         1
       5         1
'BPP    32'
       9
     100
      73         1
      71         1
      63         1
      61         1
      52         1
      17         1
      15         1
      10         1
       2         2
'BPP    33'
      10
     100
      99         1
      98         1
      89         1
      76         1
      45         1
      28         1
      24         1
      13         1
      10         1
       4         1
'BPP    34'
       9
     100
      98         1
      95         1
      89         1
      83         1
      66         1
      47         2
      22         1
      12         1
       1         1
'BPP    35'
      10
     100
      89         1
      84         1
      82         1
      77         1
      73         1
      66         1
      57         1
      56         1
      31         1
       3         1
'BPP    36'
       8
     100
      86         1
      53         1
      52         1
      26         2
      23         1
      19         1
       7         1
       6         2
'BPP    37'
       9
     100
      85         1
      58         1
      48         1
      39         1
      33         1
      30         1
      17         2
       9         1
       3         1
'BPP    38'
       9
     100
      94         1
      86         1
      83         1
      69         1
      54         1
      52         1
      42         1
      28         1
       8         2
'BPP    39'
      10
     100
      99         1
      91         1
      72         1
      68         1
      58         1
      52         1
      51         1
      50         1
      40         1
      10         1
'BPP    40'
      10
     100
      91         1
      89         1
      87         1
      86         1
      79         1
      66         1
      44         1
      38         1
      24         1
      11         1
'BPP    41'
       9
     100
     100         1
      81         1
      61         1
      48         1
      46         2
      34         1
      22         1
      17         1
      10         1
'BPP    42'
       9
     100
      99         1
      91         1
      86         1
      84         1
      66         2
      64         1
      49         1
      34         1
      18         1
'BPP    43'
       8
     100
      90         1
      75         1
      70         1
      50         2
      25         1
      20         1
       3         2
       1         1
'BPP    44'
       9
     100
      97         1
      82         1
      73         1
      62         1
      61         1
      60         2
      35         1
      31         1
       3         1
'BPP    45'
       9
     100
      97         1
      95         1
      82         1
      80         2
      53         1
      39         1
      24         1
       5         1
       4         1
'BPP    46'
      10
     100
     100         1
      98         1
      86         1
      80         1
      61         1
      52         1
      43         1
      37         1
      25         1
       5         1
'BPP    47'
       9
     100
      94         1
      90         1
      85         1
      68         1
      35         1
      29         1
      24         1
      20         2
      19         1
'BPP    48'
      10
     100
      90         1
      77         1
      69         1
      33         1
      25         1
      14         1
      12         1
       9         1
       8         1
       7         1
'BPP    49'
       8
     100
      88         1
      80         2
      79         1
      52         1
      39         1
      33         1
      31         1
      16         2
'BPP    50'
      10
     100
      96         1
      92         1
      64         1
      61         1
      59         1
      52         1
      51         1
      45         1
      23         1
      12         1
'BPP    51'
       9
     100
      88         1
      76         1
      71         1
      45         2
      42         1
      34         1
      24         1
      20         1
       9         1
'BPP    52'
       8
     100
      86         1
      82         1
      72         1
      61         1
      52         1
      43         1
      40         2
      18         2
'BPP    53'
       8
     100
      81         2
      80         1
      62         1
      58         1
      50         1
      46         2
      28         1
       8         1
'BPP    54'
      10
     100
      90         1
      87         1
      85         1
      70         1
      58         1
      55         1
      53         1
      39         1
      21         1
       8         1
'BPP    55'
      10
     100
      95         1
      79         1
      66         1
      46         1
      35         1
      29         1
      25         1
      24         1
      15         1
       9         1
'BPP    56'
       9
     100
      92         1
      86         1
      85         1
      79         2
      78         1
      75         1
      72         1
      57         1
      33         1
'BPP    57'
       9
     100
      97         1
      91         1
      88         1
      84         2
      83         1
      77         1
      52         1
      48         1
      38         1
'BPP    58'
       8
     100
      81         1
      73         1
      69         2
      53         2
      45         1
      29         1
      28         1
      12         1
'BPP    59'
      10
     100
      91         1
      72         1
      69         1
      63         1
      58         1
      55         1
      53         1
      31         1
      18         1
      10         1
'BPP    60'
      10
     100
     100         1
      99         1
      97         1
      77         1
      60         1
      56         1
      37         1
      36         1
      34         1
      28         1
'BPP    61'
      10
     100
      68         1
      63         1
      59         1
      53         1
      51         1
      31         1
      22         1
      15         1
       7         1
       2         1
'BPP    62'
       9
     100
      59         1
      51         1
      49         1
      45         1
      30         1
      29         2
      22         1
      12         1
      10         1
'BPP    63'
      10
     100
      94         1
      84         1
      82         1
      57         1
      50         1
      45         1
      35         1
      34         1
      27         1
      16         1
'BPP    64'
      10
     100
      97         1
      96         1
      92         1
      71         1
      66         1
      56         1
      55         1
      52         1
      23         1
      19         1
'BPP    65'
      10
     100
      91         1
      80         1
      79         1
      72         1
      56         1
      49         1
      33         1
      28         1
      21         1
      11         1
'BPP    66'
       9
     100
      99         1
      86         1
      73         2
      70         1
      60         1
      48         1
      39         1
      33         1
      21         1
'BPP    67'
       9
     100
      86         1
      75         1
      51         1
      41         1
      36         2
      32         1
      30         1
      20         1
      13         1
'BPP    68'
      10
     100
      96         1
      71         1
      69         1
      64         1
      58         1
      56         1
      54         1
      49         1
      43         1
      34         1
'BPP    69'
      10
     100
      92         1
      87         1
      80         1
      78         1
      68         1
      60         1
      31         1
      26         1
      19         1
      18         1
'BPP    70'
       9
     100
      73         1
      68         1
      48         1
      44         1
      43         1
      41         1
      33         2
      28         1
      20         1
'BPP    71'
      10
     100
      88         1
      87         1
      83         1
      81         1
      55         1
      43         1
      28         1
      26         1
      19         1
       4         1
'BPP    72'
      10
     100
      98         1
      95         1
      94         1
      78         1
      46         1
      41         1
      31         1
       4         1
       3         1
       1         1
'BPP    73'
      10
     100
      98         1
      77         1
      76         1
      66         1
      65         1
      45         1
      42         1
      25         1
      21         1
       6         1
'BPP    74'
      10
     100
      93         1
      87         1
      86         1
      76         1
      66         1
      57         1
      34         1
      27         1
      19         1
       9         1
'BPP    75'
      10
     100
      88         1
      84         1
      83         1
      80         1
      72         1
      62         1
      45         1
      43         1
      26         1
       7         1
'BPP    76'
       9
     100
      75         1
      62         2
      61         1
      41         1
      29         1
      14         1
      13         1
      10         1
       6         1
'BPP    77'
      10
     100
      95         1
      78         1
      77         1
      67         1
      34         1
      29         1
      24         1
      22         1
      20         1
       5         1
'BPP    78'
      10
     100
      99         1
      80         1
      77         1
      72         1
      64         1
      61         1
      50         1
      33         1
      16         1
       8         1
'BPP    79'
      10
     100
      99         1
      91         1
      88         1
      85         1
      76         1
      70         1
      58         1
      53         1
      34         1
      22         1
'BPP    80'
      10
     100
      91         1
      84         1
      73         1
      69         1
      60         1
      58         1
      43         1
      31         1
       5         1
       2         1
'BPP    81'
      10
     100
      99         1
      80         1
      79         1
      55         1
      52         1
      38         1
      35         1
      33         1
      29         1
      24         1
'BPP    82'
      10
     100
      97         1
      82         1
      81         1
      45         1
      41         1
      40         1
      34         1
      30         1
      28         1
       5         1
'BPP    83'
      10
     100
      98         1
      93         1
      85         1
      69         1
      61         1
      48         1
      42         1
      39         1
      35         1
      33         1
'BPP    84'
      10
     100
     100         1
      88         1
      87         1
      71         1
      69         1
      65         1
      47         1
      46         1
      41         1
      32         1
'BPP    85'
      10
     100
     100         1
      86         1
      68         1
      38         1
      37         1
      35         1
      34         1
       9         1
       4         1
       2         1
'BPP    86'
      10
     100
      99         1
      82         1
      75         1
      73         1
      67         1
      38         1
      36         1
      32         1
      27         1
       4         1
'BPP    87'
      10
     100
      96         1
      87         1
      81         1
      73         1
      60         1
      56         1
      47         1
      33         1
       7         1
       5         1
'BPP    88'
      10
     100
      94         1
      89         1
      83         1
      78         1
      62         1
      45         1
      37         1
       6         1
       3         1
       1         1
'BPP    89'
       9
     100
      98         1
      87         2
      82         1
      78         1
      72         1
      35         1
      23         1
      16         1
      11         1
'BPP    90'
       9
     100
      92         1
      88         1
      64         1
      60         1
      56         1
      41         1
      22         2
      18         1
       1         1
'BPP    91'
      10
     100
      89         1
      71         1
      45         1
      41         1
      32         1
      28         1
      22         1
      14         1
       9         1
       5         1
'BPP    92'
      10
     100
     100         1
      98         1
      97         1
      84         1
      71         1
      54         1
      39         1
      29         1
      22         1
      16         1
'BPP    93'
       8
     100
      69         1
      59         2
      29         1
      26         1
      21         1
      16         1
      13         2
       2         1
'BPP    94'
      10
     100
      95         1
      89         1
      87         1
      72         1
      46         1
      44         1
      41         1
      23         1
      16         1
      13         1
'BPP    95'
       9
     100
      92         1
      74         1
      73         1
      67         1
      63         1
      49         2
      42         1
      11         1
       9         1
'BPP    96'
      10
     100
      95         1
      93         1
      89         1
      77         1
      63         1
      61         1
      48         1
      27         1
      15         1
      13         1
'BPP    97'
      10
     100
      96         1
      76         1
      75         1
      58         1
      56         1
      53         1
      43         1
      26         1
      25         1
      14         1
'BPP    98'
      10
     100
      98         1
      82         1
      72         1
      58         1
      56         1
      49         1
      48         1
      14         1
       6         1
       5         1
'BPP    99'
      10
     100
      98         1
      90         1
      70         1
      66         1
      64         1
      62         1
      57         1
      27         1
      23         1
       1         1
'BPP   100'
      10
     100
      95         1
      77         1
      53         1
      49         1
      41         1
      36         1
      26         1
      23         1
      14         1
       7         1
'BPP   101'
      10
     100
     100         1
      96         1
      91         1
      66         1
      58         1
      57         1
      41         1
      27         1
      10         1
       6         1
'BPP   102'
       9
     100
     100         1
      76         1
      61         1
      55         1
      43         1
      28         1
       9         2
       3         1
       1         1
'BPP   103'
      10
     100
      96         1
      87         1
      75         1
      68         1
      56         1
      41         1
      40         1
      38         1
      21         1
      20         1
'BPP   104'
       9
     100
      95         1
      91         1
      88         1
      87         1
      48         2
      41         1
      24         1
      14         1
      10         1
'BPP   105'
      10
     100
     100         1
      87         1
      80         1
      72         1
      63         1
      52         1
      51         1
      46         1
      44         1
      27         1
'BPP   106'
      10
     100
      99         1
      96         1
      89         1
      82         1
      67         1
      59         1
      51         1
      27         1
      19         1
       3         1
'BPP   107'
      10
     100
      96         1
      81         1
      71         1
      64         1
      57         1
      51         1
      33         1
      16         1
      14         1
      10         1
'BPP   108'
       9
     100
     100         1
      87         2
      70         1
      63         1
      56         1
      43         1
      40         1
       7         1
       4         1
'BPP   109'
      10
     100
      95         1
      71         1
      68         1
      62         1
      54         1
      50         1
      21         1
      20         1
       7         1
       3         1
'BPP   110'
       8
     100
      92         1
      74         1
      55         1
      50         1
      48         2
      41         1
      33         1
       2         2
'BPP   111'
      10
     100
      93         1
      80         1
      74         1
      48         1
      35         1
      32         1
      27         1
      25         1
      23         1
       8         1
'BPP   112'
      10
     100
      96         1
      93         1
      67         1
      55         1
      52         1
      51         1
      32         1
      29         1
      13         1
       3         1
'BPP   113'
      10
     100
      98         1
      80         1
      74         1
      66         1
      42         1
      39         1
      35         1
      17         1
       8         1
       2         1
'BPP   114'
      10
     100
      95         1
      76         1
      61         1
      54         1
      43         1
      41         1
      25         1
      12         1
       7         1
       1         1
'BPP   115'
      10
     100
      80         1
      64         1
      50         1
      40         1
      35         1
      33         1
      30         1
      26         1
      24         1
       8         1
'BPP   116'
      10
     100
      99         1
      94         1
      78         1
      72         1
      71         1
      50         1
      48         1
      38         1
       9         1
       5         1
'BPP   117'
      10
     100
      97         1
      92         1
      90         1
      69         1
      62         1
      57         1
      37         1
      22         1
       3         1
       1         1
'BPP   118'
       9
     100
      96         1
      91         1
      81         1
      79         1
      73         1
      67         1
      46         2
      35         1
      19         1
'BPP   119'
       9
     100
     100         1
      83         2
      68         1
      64         1
      62         1
      56         1
      42         1
       6         1
       5         1
'BPP   120'
      10
     100
      88         1
      86         1
      61         1
      52         1
      33         1
      29         1
      25         1
      16         1
       6         1
       2         1
'BPP   121'
       9
     100
     100         1
      84         1
      80         2
      79         1
      37         1
      24         1
      14         1
      13         1
       7         1
'BPP   122'
      10
     100
      77         1
      67         1
      55         1
      51         1
      49         1
      48         1
      41         1
       6         1
       4         1
       1         1
'BPP   123'
       9
     100
      95         1
      90         1
      84         2
      62         1
      59         1
      50         1
      28         1
      19         1
      15         1
'BPP   124'
       8
     100
      90         1
      67         1
      57         1
      52         1
      50         1
      29         1
      21         2
      14         2
'BPP   125'
      10
     100
      90         1
      89         1
      66         1
      42         1
      41         1
      36         1
      27         1
      26         1
       9         1
       4         1
'BPP   126'
      10
     100
      97         1
      87         1
      74         1
      72         1
      56         1
      55         1
      36         1
      31         1
      23         1
      22         1
'BPP   127'
       9
     100
      65         1
      63         1
      59         1
      55         2
      51         1
      50         1
      26         1
      24         1
       8         1
'BPP   128'
       8
     100
      94         1
      92         2
      76         1
      61         1
      52         1
      45         1
      38         1
      13         2
'BPP   129'
      10
     100
      91         1
      70         1
      66         1
      65         1
      64         1
      62         1
      53         1
      39         1
      13         1
       1         1
'BPP   130'
       9
     100
     100         1
      83         2
      82         1
      55         1
      48         1
      45         1
      35         1
      13         1
       8         1
'BPP   131'
      10
     100
     100         1
      94         1
      82         1
      69         1
      49         1
      46         1
      42         1
      28         1
       5         1
       1         1
'BPP   132'
      10
     100
     100         1
      99         1
      48         1
      43         1
      38         1
      27         1
      21         1
      19         1
      17         1
       7         1
'BPP   133'
      10
     100
      95         1
      76         1
      71         1
      61         1
      60         1
      48         1
      47         1
      42         1
      34         1
      32         1
'BPP   134'
      10
     100
      97         1
      91         1
      82         1
      71         1
      62         1
      46         1
      40         1
      22         1
      18         1
       2         1
'BPP   135'
      10
     100
      97         1
      96         1
      75         1
      72         1
      69         1
      55         1
      40         1
      26         1
      17         1
      14         1
'BPP   136'
       8
     100
     100         1
      95         1
      83         2
      61         2
      46         1
      24         1
      11         1
       1         1
'BPP   137'
      10
     100
      90         1
      87         1
      72         1
      66         1
      60         1
      59         1
      26         1
      23         1
      17         1
       5         1
'BPP   138'
      10
     100
      97         1
      84         1
      83         1
      79         1
      62         1
      46         1
      39         1
      25         1
      18         1
       7         1
'BPP   139'
       9
     100
      76         1
      59         1
      44         1
      41         1
      37         1
      29         1
      27         2
       8         1
       4         1
'BPP   140'
       9
     100
      93         1
      82         1
      54         1
      53         2
      50         1
      41         1
       6         1
       4         1
       1         1
'BPP   141'
       8
     100
     100         2
      93         1
      82         1
      67         1
      55         1
      47         2
      36         1
      34         1
'BPP   142'
      10
     100
     100         1
      87         1
      79         1
      72         1
      63         1
      34         1
      30         1
      29         1
      20         1
      19         1
'BPP   143'
      10
     100
      92         1
      91         1
      90         1
      88         1
      60         1
      52         1
      37         1
      32         1
      21         1
       7         1
'BPP   144'
       9
     100
      96         1
      49         1
      47         1
      40         1
      22         1
      20         1
      18         1
       9         1
       2         2
'BPP   145'
      10
     100
      97         1
      95         1
      83         1
      80         1
      74         1
      63         1
      17         1
      16         1
       3         1
       1         1
'BPP   146'
       7
     100
      80         2
      67         1
      62         3
      58         1
      48         1
      47         1
      15         1
'BPP   147'
      10
     100
      88         1
      58         1
      54         1
      35         1
      34         1
      32         1
      30         1
      23         1
      21         1
       2         1
'BPP   148'
       9
     100
      89         1
      76         1
      72         1
      71         1
      70         1
      50         1
      24         1
      13         2
       2         1
'BPP   149'
      10
     100
      87         1
      85         1
      77         1
      52         1
      49         1
      32         1
      23         1
      20         1
      14         1
      12         1
'BPP   150'
      10
     100
      98         1
      93         1
      91         1
      87         1
      84         1
      58         1
      48         1
      26         1
      23         1
      21         1
